40
0 1 0.58 0.2
0 2 0.3 0.17
0 3 0.7 0.24
0 4 0.26 0.08
0 5 0.48 0.31
0 6 0.66 0.26
0 7 0.64 0.4
0 8 0.57 0.26
0 9 0.6 0.12
0 10 0.58 0.25
0 11 0.7 0.26
0 12 0.66 0.22
0 13 0.52 0.33
0 14 0.72 0.2
0 15 0.42 0.22
0 16 0.48 0.38
0 17 0.48 0.1
0 18 0.42 0.22
0 19 0.76 0.21
0 20 0.57 0.29
0 21 0.58 0.32
0 22 0.5 0.27
0 23 0.45 0.21
0 24 0.51 0.33
0 25 0.6 0.18
0 26 0.34 0.18
0 27 0.58 0.28
0 28 0.52 0.22
0 29 0.56 0.26
0 30 0.46 0.12
0 31 0.55 0.26
0 32 0.7 0.3
0 33 0.69 0.18
0 34 0.72 0.28
0 35 0.79 0.37
0 36 0.59 0.15
0 37 0.66 0.25
0 38 0.67 0.2
0 39 0.74 0.22
1 2 0.78 0.34
1 3 0.72 0.27
1 4 0.4 0.12
1 5 0.52 0.36
1 6 0.8 0.16
1 7 0.74 0.28
1 8 0.49 0.33
1 9 0.5 0.32
1 10 0.44 0.28
1 11 0.63 0.37
1 12 0.45 0.29
1 13 0.52 0.18
1 14 0.56 0.22
1 15 0.34 0.19
1 16 0.64 0.36
1 17 0.47 0.22
1 18 0.71 0.39
1 19 0.75 0.25
1 20 0.72 0.29
1 21 0.42 0.36
1 22 0.44 0.28
1 23 0.62 0.21
1 24 0.46 0.18
1 25 0.5 0.32
1 26 0.6 0.22
1 27 0.8 0.33
1 28 0.44 0.12
1 29 0.58 0.26
1 30 0.72 0.32
1 31 0.53 0.13
1 32 0.45 0.34
1 33 0.5 0.34
1 34 0.26 0.18
1 35 0.67 0.26
1 36 0.5 0.19
1 37 0.82 0.38
1 38 0.54 0.24
1 39 0.58 0.17
2 3 0.47 0.32
2 4 0.56 0.25
2 5 0.78 0.32
2 6 0.44 0.24
2 7 0.76 0.28
2 8 0.44 0.2
2 9 0.52 0.16
2 10 0.48 0.34
2 11 0.59 0.3
2 12 0.74 0.32
2 13 0.5 0.41
2 14 0.81 0.28
2 15 0.72 0.32
2 16 0.56 0.25
2 17 0.72 0.27
2 18 0.6 0.39
2 19 0.51 0.3
2 20 0.78 0.3
2 21 0.77 0.46
2 22 0.56 0.28
2 23 0.68 0.27
2 24 0.67 0.42
2 25 0.54 0.32
2 26 0.64 0.27
2 27 0.65 0.39
2 28 0.82 0.28
2 29 0.82 0.2
2 30 0.72 0.29
2 31 0.6 0.26
2 32 0.54 0.4
2 33 0.7 0.22
2 34 0.56 0.26
2 35 0.65 0.38
2 36 0.42 0.24
2 37 0.46 0.29
2 38 0.66 0.29
2 39 0.62 0.3
3 4 0.62 0.16
3 5 0.59 0.23
3 6 0.73 0.22
3 7 0.41 0.27
3 8 0.66 0.12
3 9 0.69 0.18
3 10 0.5 0.32
3 11 0.58 0.29
3 12 0.48 0.29
3 13 0.56 0.09
3 14 0.4 0.18
3 15 0.64 0.24
3 16 0.69 0.3
3 17 0.68 0.26
3 18 0.62 0.26
3 19 0.6 0.26
3 20 0.58 0.27
3 21 0.3 0.24
3 22 0.55 0.11
3 23 0.76 0.19
3 24 0.5 0.22
3 25 0.71 0.27
3 26 0.5 0.23
3 27 0.54 0.14
3 28 0.72 0.26
3 29 0.68 0.19
3 30 0.6 0.26
3 31 0.84 0.18
3 32 0.36 0.28
3 33 0.58 0.24
3 34 0.58 0.2
3 35 0.58 0.22
3 36 0.66 0.23
3 37 0.54 0.14
3 38 0.4 0.04
3 39 0.72 0.14
4 5 0.54 0.31
4 6 0.6 0.18
4 7 0.42 0.32
4 8 0.4 0.21
4 9 0.68 0.2
4 10 0.44 0.17
4 11 0.76 0.34
4 12 0.67 0.17
4 13 0.6 0.25
4 14 0.66 0.14
4 15 0.62 0.3
4 16 0.48 0.32
4 17 0.68 0.18
4 18 0.58 0.3
4 19 0.72 0.13
4 20 0.53 0.21
4 21 0.32 0.24
4 22 0.48 0.19
4 23 0.71 0.13
4 24 0.64 0.28
4 25 0.55 0.26
4 26 0.6 0.1
4 27 0.48 0.25
4 28 0.78 0.22
4 29 0.63 0.2
4 30 0.62 0.2
4 31 0.72 0.25
4 32 0.72 0.22
4 33 0.43 0.26
4 34 0.62 0.2
4 35 0.86 0.32
4 36 0.64 0.07
4 37 0.46 0.3
4 38 0.45 0.12
4 39 0.68 0.22
5 6 0.56 0.22
5 7 0.56 0.28
5 8 0.55 0.28
5 9 0.51 0.19
5 10 0.83 0.34
5 11 0.71 0.33
5 12 0.49 0.23
5 13 0.51 0.32
5 14 0.74 0.2
5 15 0.48 0.24
5 16 0.72 0.42
5 17 0.46 0.3
5 18 0.23 0.14
5 19 0.68 0.27
5 20 0.47 0.22
5 21 0.61 0.32
5 22 0.26 0.12
5 23 0.64 0.19
5 24 0.66 0.28
5 25 0.66 0.26
5 26 0.43 0.24
5 27 0.5 0.26
5 28 0.52 0.26
5 29 0.46 0.12
5 30 0.62 0.24
5 31 0.5 0.3
5 32 0.69 0.38
5 33 0.73 0.13
5 34 0.54 0.24
5 35 0.71 0.34
5 36 0.61 0.25
5 37 0.5 0.3
5 38 0.52 0.19
5 39 0.69 0.29
6 7 0.32 0.28
6 8 0.76 0.27
6 9 0.76 0.24
6 10 0.52 0.2
6 11 0.42 0.25
6 12 0.63 0.17
6 13 0.67 0.2
6 14 0.64 0.06
6 15 0.64 0.22
6 16 0.4 0.2
6 17 0.65 0.16
6 18 0.62 0.25
6 19 0.7 0.17
6 20 0.7 0.13
6 21 0.46 0.33
6 22 0.7 0.22
6 23 0.41 0.05
6 24 0.71 0.2
6 25 0.68 0.2
6 26 0.7 0.24
6 27 0.66 0.17
6 28 0.44 0.04
6 29 0.41 0.1
6 30 0.59 0.26
6 31 0.79 0.23
6 32 0.46 0.22
6 33 0.52 0.18
6 34 0.64 0.02
6 35 0.28 0.14
6 36 0.74 0.11
6 37 0.46 0.36
6 38 0.63 0.18
6 39 0.68 0.27
7 8 0.82 0.32
7 9 0.51 0.32
7 10 0.8 0.35
7 11 0.58 0.42
7 12 0.52 0.35
7 13 0.52 0.36
7 14 0.74 0.25
7 15 0.82 0.32
7 16 0.64 0.48
7 17 0.69 0.34
7 18 0.78 0.28
7 19 0.69 0.31
7 20 0.63 0.16
7 21 0.56 0.46
7 22 0.43 0.16
7 23 0.62 0.24
7 24 0.68 0.32
7 25 0.49 0.28
7 26 0.78 0.28
7 27 0.68 0.26
7 28 0.42 0.32
7 29 0.58 0.26
7 30 0.71 0.34
7 31 0.78 0.26
7 32 0.76 0.48
7 33 0.62 0.38
7 34 0.8 0.3
7 35 0.54 0.38
7 36 0.42 0.25
7 37 0.66 0.34
7 38 0.56 0.23
7 39 0.38 0.22
8 9 0.55 0.23
8 10 0.42 0.2
8 11 0.63 0.32
8 12 0.48 0.34
8 13 0.52 0.21
8 14 0.51 0.23
8 15 0.4 0.29
8 16 0.55 0.35
8 17 0.64 0.3
8 18 0.41 0.24
8 19 0.64 0.3
8 20 0.42 0.22
8 21 0.6 0.36
8 22 0.52 0.16
8 23 0.88 0.24
8 24 0.75 0.29
8 25 0.66 0.2
8 26 0.66 0.28
8 27 0.57 0.26
8 28 0.59 0.24
8 29 0.66 0.31
8 30 0.3 0.14
8 31 0.32 0.23
8 32 0.66 0.4
8 33 0.75 0.29
8 34 0.52 0.25
8 35 0.65 0.34
8 36 0.7 0.24
8 37 0.52 0.26
8 38 0.26 0.09
8 39 0.66 0.19
9 10 0.32 0.24
9 11 0.58 0.14
9 12 0.54 0.16
9 13 0.56 0.27
9 14 0.65 0.22
9 15 0.58 0.26
9 16 0.36 0.3
9 17 0.44 0.2
9 18 0.28 0.26
9 19 0.5 0.2
9 20 0.52 0.24
9 21 0.7 0.36
9 22 0.46 0.21
9 23 0.73 0.21
9 24 0.64 0.3
9 25 0.42 0.16
9 26 0.74 0.28
9 27 0.76 0.32
9 28 0.5 0.28
9 29 0.58 0.14
9 30 0.42 0.22
9 31 0.72 0.28
9 32 0.36 0.24
9 33 0.34 0.06
9 34 0.58 0.22
9 35 0.58 0.25
9 36 0.64 0.22
9 37 0.46 0.32
9 38 0.29 0.14
9 39 0.64 0.24
10 11 0.42 0.35
10 12 0.65 0.2
10 13 0.6 0.4
10 14 0.66 0.16
10 15 0.64 0.23
10 16 0.58 0.4
10 17 0.54 0.26
10 18 0.6 0.3
10 19 0.68 0.16
10 20 0.75 0.23
10 21 0.62 0.32
10 22 0.64 0.32
10 23 0.59 0.15
10 24 0.64 0.3
10 25 0.62 0.24
10 26 0.74 0.27
10 27 0.78 0.27
10 28 0.76 0.24
10 29 0.54 0.22
10 30 0.52 0.2
10 31 0.4 0.29
10 32 0.64 0.28
10 33 0.66 0.28
10 34 0.5 0.22
10 35 0.61 0.24
10 36 0.49 0.1
10 37 0.42 0.38
10 38 0.61 0.29
10 39 0.59 0.33
11 12 0.48 0.24
11 13 0.5 0.3
11 14 0.54 0.25
11 15 0.5 0.18
11 16 0.69 0.32
11 17 0.37 0.34
11 18 0.48 0.24
11 19 0.62 0.25
11 20 0.72 0.3
11 21 0.6 0.4
11 22 0.54 0.32
11 23 0.3 0.24
11 24 0.56 0.24
11 25 0.63 0.3
11 26 0.58 0.3
11 27 0.66 0.36
11 28 0.56 0.29
11 29 0.45 0.28
11 30 0.68 0.34
11 31 0.71 0.24
11 32 0.22 0.18
11 33 0.62 0.2
11 34 0.44 0.27
11 35 0.38 0.11
11 36 0.61 0.3
11 37 0.63 0.3
11 38 0.44 0.25
11 39 0.74 0.28
12 13 0.58 0.37
12 14 0.67 0.13
12 15 0.59 0.31
12 16 0.61 0.37
12 17 0.36 0.12
12 18 0.26 0.24
12 19 0.62 0.04
12 20 0.5 0.2
12 21 0.35 0.2
12 22 0.64 0.29
12 23 0.74 0.12
12 24 0.58 0.27
12 25 0.54 0.22
12 26 0.76 0.2
12 27 0.8 0.24
12 28 0.55 0.21
12 29 0.65 0.19
12 30 0.65 0.28
12 31 0.42 0.28
12 32 0.36 0.18
12 33 0.74 0.1
12 34 0.48 0.19
12 35 0.58 0.25
12 36 0.75 0.1
12 37 0.53 0.36
12 38 0.38 0.27
12 39 0.54 0.24
13 14 0.48 0.26
13 15 0.58 0.33
13 16 0.52 0.25
13 17 0.52 0.29
13 18 0.32 0.28
13 19 0.71 0.35
13 20 0.56 0.33
13 21 0.66 0.33
13 22 0.66 0.2
13 23 0.56 0.25
13 24 0.72 0.31
13 25 0.74 0.36
13 26 0.37 0.32
13 27 0.8 0.23
13 28 0.8 0.24
13 29 0.57 0.28
13 30 0.7 0.35
13 31 0.55 0.27
13 32 0.4 0.19
13 33 0.69 0.33
13 34 0.28 0.18
13 35 0.55 0.31
13 36 0.68 0.31
13 37 0.59 0.23
13 38 0.4 0.13
13 39 0.6 0.23
14 15 0.39 0.2
14 16 0.53 0.26
14 17 0.43 0.1
14 18 0.62 0.21
14 19 0.6 0.13
14 20 0.49 0.09
14 21 0.7 0.29
14 22 0.62 0.16
14 23 0.48 0.01
14 24 0.36 0.14
14 25 0.64 0.14
14 26 0.76 0.18
14 27 0.74 0.13
14 28 0.32 0.1
14 29 0.48 0.08
14 30 0.54 0.2
14 31 0.44 0.17
14 32 0.52 0.28
14 33 0.74 0.23
14 34 0.69 0.08
14 35 0.36 0.2
14 36 0.74 0.07
14 37 0.8 0.32
14 38 0.36 0.14
14 39 0.66 0.21
15 16 0.55 0.38
15 17 0.66 0.22
15 18 0.52 0.32
15 19 0.74 0.28
15 20 0.69 0.22
15 21 0.49 0.22
15 22 0.56 0.27
15 23 0.68 0.19
15 24 0.53 0.24
15 25 0.6 0.3
15 26 0.68 0.29
15 27 0.58 0.26
15 28 0.53 0.26
15 29 0.58 0.12
15 30 0.7 0.34
15 31 0.52 0.06
15 32 0.28 0.16
15 33 0.6 0.32
15 34 0.3 0.2
15 35 0.49 0.29
15 36 0.63 0.25
15 37 0.65 0.19
15 38 0.3 0.2
15 39 0.7 0.1
16 17 0.56 0.36
16 18 0.64 0.45
16 19 0.64 0.37
16 20 0.68 0.33
16 21 0.69 0.44
16 22 0.55 0.33
16 23 0.74 0.25
16 24 0.64 0.4
16 25 0.78 0.4
16 26 0.44 0.38
16 27 0.58 0.37
16 28 0.56 0.24
16 29 0.54 0.3
16 30 0.64 0.46
16 31 0.54 0.32
16 32 0.47 0.22
16 33 0.66 0.36
16 34 0.69 0.22
16 35 0.64 0.34
16 36 0.44 0.31
16 37 0.56 0.44
16 38 0.29 0.26
16 39 0.3 0.28
17 18 0.49 0.26
17 19 0.6 0.16
17 20 0.51 0.19
17 21 0.38 0.32
17 22 0.72 0.2
17 23 0.67 0.11
17 24 0.36 0.23
17 25 0.8 0.1
17 26 0.56 0.08
17 27 0.57 0.18
17 28 0.64 0.2
17 29 0.66 0.18
17 30 0.49 0.16
17 31 0.54 0.16
17 32 0.59 0.3
17 33 0.78 0.22
17 34 0.46 0.18
17 35 0.75 0.3
17 36 0.67 0.17
17 37 0.68 0.35
17 38 0.73 0.22
17 39 0.51 0.12
18 19 0.52 0.28
18 20 0.24 0.12
18 21 0.54 0.33
18 22 0.49 0.26
18 23 0.7 0.2
18 24 0.58 0.33
18 25 0.65 0.16
18 26 0.66 0.3
18 27 0.6 0.12
18 28 0.68 0.29
18 29 0.62 0.22
18 30 0.39 0.1
18 31 0.68 0.26
18 32 0.46 0.24
18 33 0.5 0.27
18 34 0.6 0.27
18 35 0.48 0.2
18 36 0.6 0.26
18 37 0.27 0.25
18 38 0.52 0.3
18 39 0.46 0.24
19 20 0.28 0.2
19 21 0.42 0.16
19 22 0.42 0.26
19 23 0.55 0.12
19 24 0.71 0.27
19 25 0.53 0.26
19 26 0.7 0.23
19 27 0.78 0.24
19 28 0.82 0.19
19 29 0.57 0.19
19 30 0.62 0.32
19 31 0.62 0.3
19 32 0.5 0.22
19 33 0.56 0.14
19 34 0.52 0.19
19 35 0.42 0.21
19 36 0.7 0.06
19 37 0.38 0.32
19 38 0.68 0.25
19 39 0.4 0.26
20 21 0.3 0.3
20 22 0.48 0.25
20 23 0.6 0.08
20 24 0.56 0.21
20 25 0.81 0.23
20 26 0.78 0.18
20 27 0.84 0.2
20 28 0.62 0.17
20 29 0.45 0.1
20 30 0.6 0.22
20 31 0.74 0.24
20 32 0.7 0.35
20 33 0.46 0.3
20 34 0.68 0.15
20 35 0.7 0.27
20 36 0.52 0.14
20 37 0.46 0.37
20 38 0.68 0.23
20 39 0.53 0.2
21 22 0.55 0.35
21 23 0.7 0.28
21 24 0.74 0.43
21 25 0.64 0.29
21 26 0.68 0.34
21 27 0.57 0.38
21 28 0.59 0.35
21 29 0.66 0.34
21 30 0.3 0.23
21 31 0.65 0.28
21 32 0.6 0.38
21 33 0.52 0.3
21 34 0.38 0.35
21 35 0.54 0.37
21 36 0.72 0.22
21 37 0.67 0.38
21 38 0.7 0.28
21 39 0.71 0.32
22 23 0.84 0.17
22 24 0.7 0.16
22 25 0.71 0.16
22 26 0.69 0.12
22 27 0.68 0.24
22 28 0.65 0.26
22 29 0.72 0.24
22 30 0.36 0.22
22 31 0.42 0.21
22 32 0.75 0.39
22 33 0.56 0.25
22 34 0.69 0.23
22 35 0.79 0.22
22 36 0.36 0.23
22 37 0.76 0.18
22 38 0.26 0.07
22 39 0.62 0.17
23 24 0.52 0.15
23 25 0.62 0.15
23 26 0.51 0.19
23 27 0.58 0.12
23 28 0.68 0.09
23 29 0.22 0.07
23 30 0.64 0.21
23 31 0.72 0.18
23 32 0.52 0.27
23 33 0.53 0.22
23 34 0.45 0.07
23 35 0.68 0.19
23 36 0.78 0.06
23 37 0.74 0.33
23 38 0.74 0.15
23 39 0.44 0.22
24 25 0.56 0.28
24 26 0.52 0.28
24 27 0.52 0.27
24 28 0.68 0.24
24 29 0.3 0.22
24 30 0.59 0.34
24 31 0.67 0.3
24 32 0.78 0.4
24 33 0.52 0.36
24 34 0.72 0.22
24 35 0.62 0.34
24 36 0.72 0.21
24 37 0.85 0.34
24 38 0.69 0.2
24 39 0.58 0.28
25 26 0.84 0.18
25 27 0.65 0.27
25 28 0.65 0.24
25 29 0.62 0.22
25 30 0.36 0.06
25 31 0.52 0.26
25 32 0.59 0.4
25 33 0.66 0.22
25 34 0.76 0.22
25 35 0.53 0.24
25 36 0.62 0.21
25 37 0.38 0.34
25 38 0.71 0.23
25 39 0.52 0.22
26 27 0.48 0.19
26 28 0.77 0.28
26 29 0.51 0.17
26 30 0.52 0.24
26 31 0.34 0.23
26 32 0.6 0.32
26 33 0.56 0.3
26 34 0.38 0.26
26 35 0.82 0.34
26 36 0.38 0.17
26 37 0.46 0.3
26 38 0.73 0.19
26 39 0.4 0.2
27 28 0.68 0.21
27 29 0.5 0.19
27 30 0.63 0.22
27 31 0.38 0.2
27 32 0.58 0.36
27 33 0.62 0.33
27 34 0.65 0.19
27 35 0.38 0.31
27 36 0.66 0.18
27 37 0.5 0.26
27 38 0.83 0.18
27 39 0.54 0.24
28 29 0.51 0.14
28 30 0.29 0.24
28 31 0.58 0.25
28 32 0.76 0.26
28 33 0.46 0.22
28 34 0.7 0.06
28 35 0.68 0.18
28 36 0.46 0.15
28 37 0.61 0.4
28 38 0.66 0.22
28 39 0.47 0.29
29 30 0.42 0.26
29 31 0.6 0.18
29 32 0.67 0.28
29 33 0.31 0.2
29 34 0.67 0.12
29 35 0.52 0.24
29 36 0.7 0.13
29 37 0.69 0.31
29 38 0.76 0.22
29 39 0.66 0.22
30 31 0.62 0.32
30 32 0.76 0.34
30 33 0.5 0.28
30 34 0.54 0.28
30 35 0.82 0.3
30 36 0.42 0.26
30 37 0.66 0.35
30 38 0.46 0.23
30 39 0.76 0.28
31 32 0.49 0.22
31 33 0.6 0.34
31 34 0.27 0.22
31 35 0.62 0.34
31 36 0.58 0.24
31 37 0.8 0.25
31 38 0.52 0.14
31 39 0.47 0.04
32 33 0.4 0.28
32 34 0.22 0.2
32 35 0.22 0.22
32 36 0.39 0.28
32 37 0.68 0.35
32 38 0.58 0.32
32 39 0.66 0.26
33 34 0.48 0.16
33 35 0.6 0.31
33 36 0.76 0.2
33 37 0.38 0.36
33 38 0.63 0.2
33 39 0.72 0.3
34 35 0.44 0.16
34 36 0.61 0.13
34 37 0.56 0.34
34 38 0.6 0.16
34 39 0.56 0.26
35 36 0.61 0.25
35 37 0.46 0.36
35 38 0.7 0.26
35 39 0.66 0.36
36 37 0.75 0.37
36 38 0.52 0.19
36 39 0.74 0.28
37 38 0.72 0.18
37 39 0.58 0.28
38 39 0.4 0.1
